2126.48
0 3 1 67 12 13 0
0 18 15 16 5 72 10 6 14 0
0 25 23 30 17 24 19 20 31 0
0 27 34 33 22 28 26 21 32 29 44 36 7 0
0 54 55 58 52 42 37 46 53 41 38 51 8 9 0
0 57 56 43 47 35 0
0 60 59 61 63 66 64 49 68 11 4 71 70 73 0
0 62 65 48 50 45 39 2 0
0 74 40 69 0
